nbObj= 51;
Capacity= 111;
Profit =[ 28,37,103,84,65,21,91,51,84,59,62,72,61,69,19,59,93,100,24,97,88,25,102,57,102,49,67,49,88,62,105,90,53,94,75,70,10,77,74,100,86,74,71,83,10,101,69,13,15,35,33];
Weight =[ 55,36,22,53,24,36,23,48,48,48,29,45,22,26,33,49,36,27,28,32,55,36,42,28,51,53,53,34,48,35,33,35,32,24,41,46,22,41,28,22,42,22,35,33,47,29,48,45,27,41,23];
